c 
c G(k,n,p) graph
c graph gen seed     : 27173
c number of vertices : 30
c max number of edges: 500
c number of classes  : 2
c edge density       : 0.800000
c edge probability   : 1.600000
c data structure     : dense
c
c           Graph Stats
c number of vertices  : 30
c nonisolated vertices: 30
c number of edges     : 225
c edge density        : 0.517241
c max degree          : 15
c avg degree          : 15.00
c min degree          : 15
p col 30 225
e 1 2
e 1 6
e 1 7
e 1 11
e 1 12
e 1 16
e 1 18
e 1 21
e 1 23
e 1 24
e 1 26
e 1 27
e 1 28
e 1 29
e 1 30
e 2 3
e 2 4
e 2 5
e 2 8
e 2 9
e 2 10
e 2 13
e 2 14
e 2 15
e 2 17
e 2 19
e 2 20
e 2 22
e 2 25
e 3 6
e 3 7
e 3 11
e 3 12
e 3 16
e 3 18
e 3 21
e 3 23
e 3 24
e 3 26
e 3 27
e 3 28
e 3 29
e 3 30
e 4 6
e 4 7
e 4 11
e 4 12
e 4 16
e 4 18
e 4 21
e 4 23
e 4 24
e 4 26
e 4 27
e 4 28
e 4 29
e 4 30
e 5 6
e 5 7
e 5 11
e 5 12
e 5 16
e 5 18
e 5 21
e 5 23
e 5 24
e 5 26
e 5 27
e 5 28
e 5 29
e 5 30
e 6 8
e 6 9
e 6 10
e 6 13
e 6 14
e 6 15
e 6 17
e 6 19
e 6 20
e 6 22
e 6 25
e 7 8
e 7 9
e 7 10
e 7 13
e 7 14
e 7 15
e 7 17
e 7 19
e 7 20
e 7 22
e 7 25
e 8 11
e 8 12
e 8 16
e 8 18
e 8 21
e 8 23
e 8 24
e 8 26
e 8 27
e 8 28
e 8 29
e 8 30
e 9 11
e 9 12
e 9 16
e 9 18
e 9 21
e 9 23
e 9 24
e 9 26
e 9 27
e 9 28
e 9 29
e 9 30
e 10 11
e 10 12
e 10 16
e 10 18
e 10 21
e 10 23
e 10 24
e 10 26
e 10 27
e 10 28
e 10 29
e 10 30
e 11 13
e 11 14
e 11 15
e 11 17
e 11 19
e 11 20
e 11 22
e 11 25
e 12 13
e 12 14
e 12 15
e 12 17
e 12 19
e 12 20
e 12 22
e 12 25
e 13 16
e 13 18
e 13 21
e 13 23
e 13 24
e 13 26
e 13 27
e 13 28
e 13 29
e 13 30
e 14 16
e 14 18
e 14 21
e 14 23
e 14 24
e 14 26
e 14 27
e 14 28
e 14 29
e 14 30
e 15 16
e 15 18
e 15 21
e 15 23
e 15 24
e 15 26
e 15 27
e 15 28
e 15 29
e 15 30
e 16 17
e 16 19
e 16 20
e 16 22
e 16 25
e 17 18
e 17 21
e 17 23
e 17 24
e 17 26
e 17 27
e 17 28
e 17 29
e 17 30
e 18 19
e 18 20
e 18 22
e 18 25
e 19 21
e 19 23
e 19 24
e 19 26
e 19 27
e 19 28
e 19 29
e 19 30
e 20 21
e 20 23
e 20 24
e 20 26
e 20 27
e 20 28
e 20 29
e 20 30
e 21 22
e 21 25
e 22 23
e 22 24
e 22 26
e 22 27
e 22 28
e 22 29
e 22 30
e 23 25
e 24 25
e 25 26
e 25 27
e 25 28
e 25 29
e 25 30
